p cnf 273 547
-8 7 -9 0
6 8 -9 0
-7 -8 9 0
9 -6 8 0
-10 -5 -9 0
9 5 -10 0
5 10 -9 0
-5 9 10 0
-8 -11 0
-11 10 0
11 -10 8 0
-11 -12 0
12 11 0
-13 11 0
-12 -13 0
13 12 -11 0
-8 -14 0
14 8 0
9 -15 0
5 -15 0
15 -5 -9 0
15 -16 0
16 -15 0
5 -20 0
-19 -20 0
20 19 -5 0
9 -21 0
-19 -21 0
21 19 -9 0
-22 -21 0
21 22 0
22 -23 0
20 -23 0
-22 -20 23 0
-24 -20 0
20 24 0
21 -25 0
24 -25 0
-24 -21 25 0
5 -27 0
-26 -27 0
27 26 -5 0
9 -28 0
-26 -28 0
28 26 -9 0
-29 -28 0
28 29 0
29 -30 0
27 -30 0
-29 -27 30 0
-31 -27 0
27 31 0
28 -32 0
31 -32 0
-31 -28 32 0
5 -34 0
-34 -33 0
33 34 -5 0
9 -35 0
-35 -33 0
33 35 -9 0
-36 -35 0
36 35 0
-37 36 0
-37 34 0
-34 -36 37 0
-38 -34 0
38 34 0
35 -39 0
-39 38 0
-35 -38 39 0
-39 -40 0
-37 -40 0
-32 -40 0
-30 -40 0
-25 -40 0
-23 -40 0
40 37 23 30 32 25 39 0
15 -41 0
41 -15 0
40 -41 0
-49 -51 -50 0
-24 50 -51 0
51 49 -50 0
24 50 51 0
-54 53 -55 0
52 54 -55 0
-53 -54 55 0
55 -52 54 0
-49 -56 -55 0
-22 55 -56 0
56 49 -55 0
22 55 56 0
-57 -56 0
57 56 0
-58 57 0
-58 51 0
-57 -51 58 0
-59 -51 0
51 59 0
-60 56 0
-60 59 0
-59 -56 60 0
-62 -61 -50 0
-31 50 -62 0
61 62 -50 0
31 50 62 0
-63 -61 -55 0
-29 55 -63 0
61 63 -55 0
29 55 63 0
-63 -64 0
64 63 0
64 -65 0
62 -65 0
-62 -64 65 0
-66 -62 0
66 62 0
63 -67 0
66 -67 0
-63 -66 67 0
-69 -68 -50 0
-38 50 -69 0
68 69 -50 0
38 50 69 0
-70 -68 -55 0
-36 55 -70 0
68 70 -55 0
36 55 70 0
-70 -71 0
71 70 0
-72 71 0
69 -72 0
-69 -71 72 0
-73 -69 0
73 69 0
-74 70 0
73 -74 0
-70 -73 74 0
-74 -75 0
-72 -75 0
-67 -75 0
-65 -75 0
-60 -75 0
-58 -75 0
75 72 67 65 58 60 74 0
55 -76 0
50 -76 0
76 -50 -55 0
75 -76 0
-84 -86 -85 0
-59 85 -86 0
86 84 -85 0
59 85 86 0
88 -89 -90 0
89 87 -90 0
90 -88 -89 0
-87 89 90 0
-84 -91 -90 0
-57 90 -91 0
91 84 -90 0
57 90 91 0
-92 -91 0
91 92 0
-93 92 0
-93 86 0
-92 -86 93 0
-94 -86 0
94 86 0
-95 91 0
-95 94 0
-94 -91 95 0
-97 -85 -96 0
-66 85 -97 0
96 -85 97 0
66 85 97 0
-98 -90 -96 0
-64 90 -98 0
96 -90 98 0
64 90 98 0
-99 -98 0
99 98 0
-100 99 0
-100 97 0
-97 100 -99 0
-101 -97 0
101 97 0
-102 98 0
-102 101 0
-98 -101 102 0
-104 -103 -85 0
-73 85 -104 0
103 104 -85 0
73 85 104 0
-105 -103 -90 0
-71 90 -105 0
103 105 -90 0
71 90 105 0
-106 -105 0
106 105 0
-107 106 0
-107 104 0
-104 -106 107 0
-108 -104 0
108 104 0
-109 105 0
-109 108 0
-105 -108 109 0
-109 -110 0
-107 -110 0
-102 -110 0
-100 -110 0
-95 -110 0
-93 -110 0
110 109 100 93 95 107 102 0
55 -111 0
50 -111 0
111 -50 -55 0
90 -114 0
85 -114 0
114 -90 -85 0
110 -114 0
-124 -122 -123 0
-94 123 -124 0
122 124 -123 0
94 123 124 0
126 -127 -128 0
127 125 -128 0
128 -126 -127 0
-125 127 128 0
-129 -122 -128 0
-92 128 -129 0
122 129 -128 0
92 128 129 0
-130 -129 0
130 129 0
-131 130 0
-131 124 0
-124 -130 131 0
-132 -124 0
132 124 0
-133 129 0
-133 132 0
-129 -132 133 0
-135 -134 -123 0
-101 123 -135 0
135 134 -123 0
101 123 135 0
-136 -134 -128 0
-99 128 -136 0
134 136 -128 0
99 128 136 0
-136 -137 0
137 136 0
137 -138 0
135 -138 0
-135 -137 138 0
-139 -135 0
139 135 0
136 -140 0
139 -140 0
-136 -139 140 0
-141 -142 -123 0
-108 123 -142 0
142 141 -123 0
108 123 142 0
-141 -143 -128 0
-106 128 -143 0
143 141 -128 0
106 128 143 0
-144 -143 0
143 144 0
144 -145 0
142 -145 0
-144 -142 145 0
-146 -142 0
142 146 0
143 -147 0
146 -147 0
-146 -143 147 0
-147 -148 0
-145 -148 0
-140 -148 0
-138 -148 0
-133 -148 0
-131 -148 0
148 133 147 140 138 131 145 0
90 -149 0
85 -149 0
149 -90 -85 0
128 -152 0
123 -152 0
152 -123 -128 0
148 -152 0
-160 -162 -161 0
-132 161 -162 0
162 160 -161 0
132 161 162 0
164 -165 -166 0
165 163 -166 0
166 -164 -165 0
-163 165 166 0
-160 -167 -166 0
-130 166 -167 0
167 160 -166 0
130 166 167 0
-168 -167 0
168 167 0
-169 168 0
-169 162 0
-168 -162 169 0
-170 -162 0
162 170 0
-171 167 0
-171 170 0
-170 -167 171 0
-173 -172 -161 0
-139 161 -173 0
172 173 -161 0
139 161 173 0
-174 -172 -166 0
-137 166 -174 0
172 174 -166 0
137 166 174 0
-175 -174 0
175 174 0
175 -176 0
173 -176 0
-173 -175 176 0
-173 -177 0
177 173 0
174 -178 0
177 -178 0
-174 -177 178 0
-179 -180 -161 0
-146 161 -180 0
180 179 -161 0
146 161 180 0
-179 -181 -166 0
-144 166 -181 0
181 179 -166 0
144 166 181 0
-182 -181 0
182 181 0
-183 182 0
-183 180 0
-182 -180 183 0
-184 -180 0
180 184 0
-185 181 0
-185 184 0
-184 -181 185 0
-185 -186 0
-183 -186 0
-178 -186 0
-176 -186 0
-171 -186 0
-169 -186 0
186 169 176 178 183 185 171 0
128 -187 0
123 -187 0
187 -123 -128 0
166 -190 0
161 -190 0
190 -161 -166 0
186 -190 0
-198 -200 -199 0
-170 199 -200 0
200 198 -199 0
170 199 200 0
202 -203 -204 0
203 201 -204 0
204 -202 -203 0
-201 203 204 0
-198 -205 -204 0
-168 204 -205 0
205 198 -204 0
168 204 205 0
-206 -205 0
206 205 0
-207 206 0
-207 200 0
-206 -200 207 0
-208 -200 0
200 208 0
-209 205 0
-209 208 0
-208 -205 209 0
-210 -211 -199 0
-177 199 -211 0
211 210 -199 0
177 199 211 0
-210 -212 -204 0
-175 204 -212 0
212 210 -204 0
175 204 212 0
-213 -212 0
212 213 0
213 -214 0
211 -214 0
-213 -211 214 0
-215 -211 0
211 215 0
212 -216 0
215 -216 0
-215 -212 216 0
-218 -217 -199 0
-184 199 -218 0
217 218 -199 0
184 199 218 0
-219 -217 -204 0
-182 204 -219 0
219 217 -204 0
182 204 219 0
-220 -219 0
220 219 0
220 -221 0
-221 218 0
-220 -218 221 0
-218 -222 0
222 218 0
219 -223 0
-223 222 0
-219 -222 223 0
-223 -224 0
-221 -224 0
-216 -224 0
-214 -224 0
-209 -224 0
-207 -224 0
224 221 216 207 214 209 223 0
166 -225 0
161 -225 0
225 -161 -166 0
204 -228 0
199 -228 0
228 -204 -199 0
224 -228 0
-238 -236 -237 0
-208 237 -238 0
238 236 -237 0
208 237 238 0
-241 240 -242 0
239 241 -242 0
-240 -241 242 0
242 -239 241 0
-236 -243 -242 0
-206 242 -243 0
236 243 -242 0
206 242 243 0
-244 -243 0
244 243 0
244 -245 0
238 -245 0
-238 -244 245 0
-238 -246 0
246 238 0
243 -247 0
246 -247 0
-243 -246 247 0
-248 -249 -237 0
-215 237 -249 0
249 248 -237 0
215 237 249 0
-248 -250 -242 0
-213 242 -250 0
248 250 -242 0
213 242 250 0
-250 -251 0
250 251 0
251 -252 0
249 -252 0
252 -251 -249 0
-253 -249 0
249 253 0
250 -254 0
253 -254 0
-253 -250 254 0
-256 -255 -237 0
-222 237 -256 0
256 255 -237 0
222 237 256 0
-257 -255 -242 0
-220 242 -257 0
255 257 -242 0
220 242 257 0
-257 -258 0
257 258 0
-259 258 0
256 -259 0
-256 259 -258 0
-260 -256 0
256 260 0
-261 257 0
260 -261 0
-260 -257 261 0
-261 -262 0
-259 -262 0
-254 -262 0
-252 -262 0
-247 -262 0
-245 -262 0
259 261 245 254 252 247 262 0
204 -263 0
199 -263 0
263 -204 -199 0
242 -266 0
237 -266 0
266 -237 -242 0
266 -267 0
-262 -267 0
262 -266 267 0
-267 -268 0
268 267 0
-269 267 0
-268 -269 0
269 268 -267 0
-23 -9 0
-30 -9 0
-34 40 25 32 -9 0
40 32 25 -5 -9 0
-25 -5 0
-67 -50 -55 0
71 75 65 -50 60 58 -55 0
-49 75 -50 65 -55 0
75 65 -50 -55 0
96 110 93 107 109 95 -90 -85 0
91 110 109 107 -90 -85 0
103 110 -90 -85 0
122 148 140 138 147 145 -128 -123 0
148 145 140 147 138 -128 -123 0
-140 -123 -128 0
-147 -123 -128 0
-138 -123 -128 0
-176 -161 -166 0
-160 186 178 185 183 -166 -161 0
180 186 178 -166 -161 0
178 186 -166 -161 0
-216 -204 -199 0
222 224 -204 214 209 207 -199 0
200 224 -204 214 -199 0
224 214 -204 -199 0
-245 -242 -237 0
-254 -237 -242 0
258 252 247 -237 262 -242 0
252 247 -237 262 -242 0
-247 -237 -242 0
